45
100
70	2
69	4
68	2
67	2
66	3
65	1
64	2
63	4
62	1
61	2
60	3
59	1
58	4
57	1
56	6
55	4
54	1
53	2
52	2
51	6
50	1
49	3
48	2
47	1
46	1
45	2
43	2
41	1
40	1
39	3
38	3
36	1
35	1
34	4
33	1
32	3
31	1
29	4
28	3
26	2
25	2
23	1
22	1
21	1
20	2
